p cnf 32 79
a 22 15 0
e 1 2 3 4 5 6 7 8 9 10 11 12 13 14 16 17 18 19 20 21 23 24 25 26 27 28 29 30 31 32 0
3 2 0
3 2 0
-2 -3 0
-6 -4 0
-6 -5 0
4 5 6 0
7 -3 0
7 -6 0
3 6 -7 0
-1 -7 -8 0
1 7 -8 0
-1 7 8 0
1 -7 8 0
6 9 -10 0
-6 -9 -10 0
6 -9 10 0
-6 9 10 0
11 -8 0
11 -10 0
8 10 -11 0
13 12 0
13 -1 0
-12 1 -13 0
-14 13 0
-14 -13 0
-15 -13 0
-15 -14 0
13 14 15 0
-16 -15 0
-16 3 0
15 -3 16 0
-18 17 0
-18 -7 0
-17 7 18 0
-19 -13 0
-19 -18 0
13 18 19 0
-20 16 0
-20 -19 0
-16 19 20 0
-11 20 -21 0
11 -20 -21 0
-11 -20 21 0
11 20 21 0
-22 1 0
-22 -7 0
-1 7 22 0
-25 23 0
-25 24 0
-23 -24 25 0
-26 22 0
-26 -25 0
-22 25 26 0
18 3 -27 0
-18 -3 -27 0
18 -3 27 0
-18 3 27 0
29 -28 0
29 12 0
28 -12 -29 0
-30 27 0
-30 29 0
-27 -29 30 0
26 -30 -31 0
-26 30 -31 0
26 30 31 0
-26 -30 31 0
-21 -31 -32 0
21 31 -32 0
-21 31 32 0
21 -31 32 0
29 4 13 27 28 24 -11 0
16 -21 -15 1 31 27 0
-19 -7 -18 10 -15 -4 11 -24 0
18 6 -10 20 30 -13 0
-19 8 11 -23 -13 4 0
-8 10 -28 12 0
-21 -12 -28 -1 -19 0
32 0
